Route #1: 67 70 76 72 45 22 4 32 58
Route #2: 49 73 36 66 53 42
Route #3: 46 41 15 33 55 9 54 50 38
Route #4: 13 74 60 39 3 77 51
Route #5: 31 20 75 57 19 26 35 65 69 56 47 25 64
Route #6: 29 17 27 59 30 23 62
Route #7: 78 61 16 43 68 8 37 2 34 10
Route #8: 12 44 5 6 24 11 63
Route #9: 71 14 48 18 79 28 52
Route #10: 40 21 7 1
Cost 1776
Time 0.138809
